99 100
38 90 1
66 34 1
26 66 1
9 70 1
17 96 1
44 88 1
10 76 1
8 73 1
7 75 1
50 95 1
6 94 1
20 85 1
9 98 1
17 76 1
14 85 2
42 69 1
22 93 1
46 100 1
33 85 1
84 46 1
98 45 1
36 97 1
14 93 1
23 98 1
89 12 1
88 51 1
6 74 1
31 72 1
32 40 1
51 71 1
60 96 1
1 90 1
42 87 1
28 66 1
27 95 1
82 71 1
14 88 1
15 96 1
4 100 1
25 79 1
47 46 1
14 99 1
43 79 1
30 86 1
42 80 1
24 75 1
44 66 1
46 66 1
49 71 1
46 94 1
7 43 1
24 89 1
17 70 1
86 30 1
31 98 1
97 66 1
26 86 1
17 75 1
64 85 1
39 39 1
33 95 1
64 91 1
78 52 1
43 81 1
1 77 1
24 87 1
3 88 1
70 17 1
88 2 1
94 81 1
39 82 1
34 82 1
24 100 1
84 44 1
37 84 1
23 95 1
28 71 1
71 68 1
47 95 1
81 23 1
43 86 1
27 69 1
18 78 1
35 75 1
21 73 1
95 52 1
1 70 1
8 18 1
9 5 1
24 73 1
46 70 1
93 83 1
10 73 1
15 88 1
2 78 1
40 72 1
22 85 1
17 16 1
20 94 1
100 100 
100 100 
100 100 
100 100 
100 100 
100 100 
100 100 
100 100 
100 100 
100 100 
100 100 
100 100 
100 100 
100 100 
100 100 
100 100 
100 100 
100 100 
100 100 
100 100 
100 100 
100 100 
100 100 
100 100 
100 100 
100 100 
100 100 
100 100 
100 100 
100 100 
100 100 
100 100 
100 100 
100 100 
100 100 
100 100 
100 100 
100 100 
100 100 
100 100 
100 100 
100 100 
100 100 
100 100 
100 100 
100 100 
100 100 
100 100 
100 100 
100 100 
100 100 
100 100 
100 100 
100 100 
100 100 
100 100 
100 100 
100 100 
100 100 
100 100 
100 100 
100 100 
100 100 
100 100 
100 100 
100 100 
100 100 
100 100 
100 100 
100 100 
100 100 
100 100 
100 100 
100 100 
100 100 
100 100 
100 100 
100 100 
100 100 
100 100 
100 100 
100 100 
100 100 
100 100 
100 100 
100 100 
100 100 
100 100 
100 100 
100 100 
100 100 
100 100 
100 100 
100 100 
100 100 
100 100 
100 100 
100 100 
100 100 
100 100 
